Maximize
 obj: 0 X1
Subject To
 c1:
  + 1 X2 + 1 X53 + 1 X124 + 1 X32 + 1 X95 + 1 X130 + 1 X135 + 1 X93
  + 1 X110 + 1 X67 + 1 X36 + 1 X127
  <= 1
 c2:
  + 1 X31 + 1 X94 + 1 X5 + 1 X113 + 1 X13 + 1 X46 + 1 X34
  <= 1
 c3:
  + 1 X28 + 1 X57 + 1 X192 + 1 X199 + 1 X31 + 1 X190 + 1 X34 + 1 X26
  <= 1
 c4:
  + 1 X82 + 1 X108 + 1 X134 + 1 X111 + 1 X80 + 1 X131 + 1 X18 + 1 X187
  + 1 X41 + 1 X81 + 1 X168 + 1 X87 + 1 X152 + 1 X46 + 1 X7
  <= 1
 c5:
  + 1 X63 + 1 X2 + 1 X60 + 1 X176 + 1 X189 + 1 X109 + 1 X163
  <= 1
 c6:
  + 1 X54 + 1 X109 + 1 X70 + 1 X101 + 1 X90 + 1 X143 + 1 X64 + 1 X162
  + 1 X74 + 1 X155 + 1 X50 + 1 X28 + 1 X120 + 1 X65 + 1 X148 + 1 X12
  + 1 X13
  <= 1
 c7:
  + 1 X88 + 1 X149 + 1 X180 + 1 X169
  <= 1
 c8:
  + 1 X57 + 1 X41 + 1 X126 + 1 X173 + 1 X183 + 1 X78 + 1 X104 + 1 X150
  + 1 X89 + 1 X8 + 1 X136 + 1 X71 + 1 X69 + 1 X26
  <= 1
 c9:
  + 1 X189 + 1 X74 + 1 X187 + 1 X101 + 1 X112 + 1 X125 + 1 X103 + 1 X81
  + 1 X55 + 1 X105 + 1 X23 + 1 X89 + 1 X155 + 1 X173 + 1 X136 + 1 X115
  + 1 X82
  <= 1
 c10:
  + 1 X104 + 1 X182 + 1 X93 + 1 X50 + 1 X181 + 1 X157 + 1 X44 + 1 X177
  + 1 X77 + 1 X159 + 1 X75 + 1 X101 + 1 X72 + 1 X102 + 1 X30 + 1 X23
  + 1 X36 + 1 X92
  <= 1
 c11:
  + 1 X30 + 1 X173 + 1 X1 + 1 X14 + 1 X37 + 1 X71 + 1 X78 + 1 X41
  + 1 X111 + 1 X156 + 1 X57 + 1 X50 + 1 X25 + 1 X104 + 1 X161 + 1 X58
  + 1 X65 + 1 X96 + 1 X44 + 1 X17
  <= 1
 c12:
  + 1 X122 + 1 X109 + 1 X180 + 1 X29 + 1 X32 + 1 X22 + 1 X78 + 1 X165
  + 1 X153 + 1 X136 + 1 X108 + 1 X164 + 1 X103 + 1 X175
  <= 1
 c13:
  + 1 X87 + 1 X197
  <= 1
 c14:
  + 1 X13 + 1 X125 + 1 X46 + 1 X177 + 1 X56 + 1 X45 + 1 X154 + 1 X197
  + 1 X67 + 1 X35 + 1 X165 + 1 X2 + 1 X150 + 1 X179 + 1 X91 + 1 X40
  <= 1
 c15:
  + 1 X129 + 1 X194 + 1 X187 + 1 X27 + 1 X54 + 1 X146 + 1 X91 + 1 X190
  + 1 X166 + 1 X163 + 1 X175 + 1 X147 + 1 X68 + 1 X35 + 1 X61 + 1 X10
  <= 1
 c16:
  + 1 X118 + 1 X155 + 1 X1 + 1 X55 + 1 X72 + 1 X76 + 1 X151 + 1 X67
  + 1 X86 + 1 X108 + 1 X42 + 1 X200 + 1 X163 + 1 X124 + 1 X195 + 1 X139
  + 1 X103 + 1 X187
  <= 1
 c17:
  + 1 X135 + 1 X129
  <= 1
 c18:
  + 1 X193 + 1 X118 + 1 X95 + 1 X15 + 1 X176 + 1 X122 + 1 X200 + 1 X110
  + 1 X49 + 1 X132 + 1 X12 + 1 X169 + 1 X90
  <= 1
 c19:
  + 1 X4 + 1 X152 + 1 X68
  <= 1
 c20:
  + 1 X166 + 1 X136 + 1 X177 + 1 X100
  <= 1
 c21:
  + 1 X191 + 1 X84 + 1 X182 + 1 X74 + 1 X14 + 1 X199 + 1 X106 + 1 X32
  <= 1
 c22:
  + 1 X174 + 1 X168 + 1 X38 + 1 X177 + 1 X145 + 1 X94 + 1 X58 + 1 X176
  + 1 X75 + 1 X103 + 1 X116 + 1 X185 + 1 X152 + 1 X196 + 1 X76 + 1 X107
  + 1 X191 + 1 X42
  <= 1
 c23:
  + 1 X192 + 1 X76 + 1 X180 + 1 X166 + 1 X117
  <= 1
 c24:
  + 1 X107 + 1 X69 + 1 X60 + 1 X57 + 1 X51 + 1 X127 + 1 X116 + 1 X168
  + 1 X157 + 1 X86 + 1 X150 + 1 X19 + 1 X8 + 1 X135 + 1 X108 + 1 X85
  + 1 X176 + 1 X56
  <= 1
 c25:
  + 1 X14 + 1 X188 + 1 X115 + 1 X98 + 1 X78 + 1 X40 + 1 X126 + 1 X4
  + 1 X152 + 1 X77 + 1 X166
  <= 1
 c26:
  + 1 X74 + 1 X139 + 1 X18 + 1 X185 + 1 X11 + 1 X156 + 1 X108 + 1 X5
  + 1 X170 + 1 X24
  <= 1
 c27:
  + 1 X157 + 1 X147 + 1 X51 + 1 X64 + 1 X2 + 1 X9 + 1 X76 + 1 X116
  + 1 X21
  <= 1
 c28:
  + 1 X45 + 1 X106 + 1 X26 + 1 X107 + 1 X145 + 1 X5 + 1 X82 + 1 X126
  <= 1
 c29:
  + 1 X170 + 1 X162 + 1 X140 + 1 X183
  <= 1
 c30:
  + 1 X11 + 1 X66 + 1 X200 + 1 X145 + 1 X37 + 1 X126 + 1 X104
  <= 1
 c31:
  + 1 X93 + 1 X42 + 1 X181 + 1 X63 + 1 X50 + 1 X15 + 1 X117 + 1 X159
  + 1 X13 + 1 X29 + 1 X100 + 1 X162 + 1 X59 + 1 X134 + 1 X36
  <= 1
 c32:
  + 1 X106 + 1 X81 + 1 X51 + 1 X197 + 1 X182 + 1 X193 + 1 X175 + 1 X73
  + 1 X178 + 1 X93
  <= 1
 c33:
  + 1 X160 + 1 X136 + 1 X60 + 1 X107 + 1 X182 + 1 X19 + 1 X76 + 1 X53
  + 1 X70 + 1 X3 + 1 X32 + 1 X4 + 1 X111 + 1 X98 + 1 X167 + 1 X152
  + 1 X179 + 1 X108 + 1 X176 + 1 X79
  <= 1
 c34:
  + 1 X110 + 1 X173 + 1 X162 + 1 X57 + 1 X94 + 1 X35 + 1 X67 + 1 X176
  + 1 X93 + 1 X63 + 1 X123
  <= 1
 c35:
  + 1 X100 + 1 X156 + 1 X176 + 1 X16 + 1 X196 + 1 X135 + 1 X62 + 1 X76
  + 1 X1 + 1 X73 + 1 X80 + 1 X86
  <= 1
 c36:
  + 1 X193 + 1 X15 + 1 X191 + 1 X74 + 1 X58 + 1 X169 + 1 X118 + 1 X123
  + 1 X52 + 1 X186 + 1 X87 + 1 X64 + 1 X85 + 1 X95 + 1 X129
  <= 1
 c37:
  + 1 X15 + 1 X157 + 1 X119 + 1 X100 + 1 X120 + 1 X135 + 1 X42 + 1 X72
  + 1 X3 + 1 X50 + 1 X156 + 1 X133 + 1 X45 + 1 X77 + 1 X76 + 1 X142
  <= 1
 c38:
  + 1 X164 + 1 X173 + 1 X149 + 1 X73 + 1 X160 + 1 X131 + 1 X3 + 1 X147
  + 1 X52
  <= 1
 c39:
  + 1 X99 + 1 X28 + 1 X135 + 1 X17 + 1 X112 + 1 X60 + 1 X168 + 1 X3
  + 1 X143 + 1 X169 + 1 X123 + 1 X122 + 1 X49 + 1 X98 + 1 X172 + 1 X10
  + 1 X124 + 1 X194 + 1 X137 + 1 X150
  <= 1
 c40:
  + 1 X46 + 1 X150 + 1 X113 + 1 X61 + 1 X40 + 1 X98 + 1 X5 + 1 X53
  + 1 X38 + 1 X48 + 1 X168 + 1 X155 + 1 X183 + 1 X173 + 1 X22 + 1 X179
  + 1 X134
  <= 1
 obj1:
  + 92 X1 + 67 X2 + 81 X3 + 58 X4 + 54 X5 + 24 X6 + 99 X7 + 35 X8
  + 89 X9 + 23 X10 + 6 X11 + 86 X12 + 46 X13 + 21 X14 + 7 X15 + 72 X16
  + 65 X17 + 38 X18 + 56 X19 + 63 X20 + 80 X21 + 29 X22 + 13 X23 + 28 X24
  + 17 X25 + 49 X26 + 73 X27 + 56 X28 + 41 X29 + 57 X30 + 20 X31 + 46 X32
  + 11 X33 + 71 X34 + 25 X35 + 71 X36 + 32 X37 + 39 X38 + 79 X39 + 31 X40
  + 72 X41 + 59 X42 + 75 X43 + 64 X44 + 80 X45 + 62 X46 + 28 X47 + 22 X48
  + 81 X49 + 24 X50 + 27 X51 + 10 X52 + 78 X53 + 14 X54 + 15 X55 + 72 X56
  + 43 X57 + 23 X58 + 58 X59 + 55 X60 + 59 X61 + 88 X62 + 24 X63 + 82 X64
  + 70 X65 + 96 X66 + 25 X67 + 100 X68 + 17 X69 + 18 X70 + 40 X71 + 44 X72
  + 44 X73 + 61 X74 + 2 X75 + 37 X76 + 90 X77 + 60 X78 + 69 X79 + 30 X80
  + 14 X81 + 90 X82 + 48 X83 + 61 X84 + 55 X85 + 54 X86 + 96 X87 + 84 X88
  + 58 X89 + 76 X90 + 87 X91 + 50 X92 + 75 X93 + 9 X94 + 73 X95 + 63 X96
  + 9 X97 + 82 X98 + 61 X99 + 56 X100 + 41 X101 + 17 X102 + 87 X103 + 88 X104
  + 63 X105 + 97 X106 + 78 X107 + 1 X108 + 90 X109 + 47 X110 + 14 X111 + 27 X112
  + 49 X113 + 28 X114 + 75 X115 + 13 X116 + 87 X117 + 63 X118 + 47 X119 + 80 X120
  + 32 X121 + 89 X122 + 1 X123 + 12 X124 + 51 X125 + 36 X126 + 94 X127 + 13 X128
  + 38 X129 + 21 X130 + 10 X131 + 5 X132 + 94 X133 + 62 X134 + 51 X135 + 87 X136
  + 93 X137 + 35 X138 + 100 X139 + 77 X140 + 82 X141 + 90 X142 + 1 X143 + 72 X144
  + 97 X145 + 2 X146 + 72 X147 + 22 X148 + 30 X149 + 43 X150 + 70 X151 + 61 X152
  + 36 X153 + 27 X154 + 17 X155 + 29 X156 + 79 X157 + 72 X158 + 69 X159 + 74 X160
  + 30 X161 + 78 X162 + 88 X163 + 30 X164 + 34 X165 + 41 X166 + 99 X167 + 62 X168
  + 63 X169 + 15 X170 + 68 X171 + 3 X172 + 55 X173 + 89 X174 + 13 X175 + 72 X176
  + 82 X177 + 9 X178 + 78 X179 + 34 X180 + 50 X181 + 5 X182 + 62 X183 + 50 X184
  + 76 X185 + 7 X186 + 10 X187 + 21 X188 + 59 X189 + 93 X190 + 34 X191 + 69 X192
  + 88 X193 + 13 X194 + 34 X195 + 1 X196 + 32 X197 + 58 X198 + 87 X199 + 33 X200
  >= 1
 obj2:
  + 16 X1 + 28 X2 + 16 X3 + 64 X4 + 29 X5 + 95 X6 + 96 X7 + 3 X8
  + 9 X9 + 44 X10 + 28 X11 + 24 X12 + 48 X13 + 58 X14 + 28 X15 + 20 X16
  + 91 X17 + 55 X18 + 34 X19 + 65 X20 + 56 X21 + 4 X22 + 77 X23 + 61 X24
  + 30 X25 + 64 X26 + 15 X27 + 75 X28 + 47 X29 + 70 X30 + 33 X31 + 16 X32
  + 25 X33 + 1 X34 + 95 X35 + 52 X36 + 67 X37 + 33 X38 + 91 X39 + 18 X40
  + 2 X41 + 69 X42 + 31 X43 + 83 X44 + 55 X45 + 59 X46 + 28 X47 + 14 X48
  + 49 X49 + 28 X50 + 4 X51 + 53 X52 + 20 X53 + 57 X54 + 14 X55 + 65 X56
  + 69 X57 + 66 X58 + 50 X59 + 58 X60 + 88 X61 + 23 X62 + 51 X63 + 52 X64
  + 49 X65 + 1 X66 + 29 X67 + 94 X68 + 36 X69 + 25 X70 + 34 X71 + 17 X72
  + 77 X73 + 56 X74 + 84 X75 + 8 X76 + 58 X77 + 1 X78 + 36 X79 + 87 X80
  + 46 X81 + 2 X82 + 75 X83 + 12 X84 + 7 X85 + 52 X86 + 16 X87 + 35 X88
  + 30 X89 + 12 X90 + 37 X91 + 90 X92 + 59 X93 + 69 X94 + 91 X95 + 73 X96
  + 19 X97 + 92 X98 + 80 X99 + 27 X100 + 16 X101 + 57 X102 + 36 X103 + 62 X104
  + 29 X105 + 26 X106 + 67 X107 + 77 X108 + 99 X109 + 86 X110 + 46 X111 + 75 X112
  + 25 X113 + 66 X114 + 15 X115 + 22 X116 + 46 X117 + 28 X118 + 12 X119 + 97 X120
  + 38 X121 + 61 X122 + 55 X123 + 61 X124 + 1 X125 + 35 X126 + 5 X127 + 17 X128
  + 84 X129 + 23 X130 + 85 X131 + 56 X132 + 12 X133 + 43 X134 + 79 X135 + 14 X136
  + 60 X137 + 12 X138 + 90 X139 + 32 X140 + 20 X141 + 1 X142 + 93 X143 + 71 X144
  + 90 X145 + 65 X146 + 93 X147 + 18 X148 + 69 X149 + 77 X150 + 40 X151 + 43 X152
  + 60 X153 + 20 X154 + 13 X155 + 80 X156 + 35 X157 + 59 X158 + 16 X159 + 67 X160
  + 1 X161 + 24 X162 + 29 X163 + 72 X164 + 65 X165 + 41 X166 + 5 X167 + 86 X168
  + 42 X169 + 57 X170 + 15 X171 + 63 X172 + 60 X173 + 54 X174 + 21 X175 + 63 X176
  + 57 X177 + 45 X178 + 23 X179 + 48 X180 + 19 X181 + 63 X182 + 78 X183 + 40 X184
  + 5 X185 + 97 X186 + 96 X187 + 84 X188 + 69 X189 + 40 X190 + 95 X191 + 57 X192
  + 36 X193 + 65 X194 + 47 X195 + 76 X196 + 46 X197 + 83 X198 + 30 X199 + 44 X200
  >= 2
 obj3:
  + 66 X1 + 98 X2 + 65 X3 + 39 X4 + 51 X5 + 69 X6 + 55 X7 + 96 X8
  + 97 X9 + 84 X10 + 12 X11 + 58 X12 + 28 X13 + 1 X14 + 49 X15 + 11 X16
  + 42 X17 + 41 X18 + 47 X19 + 27 X20 + 92 X21 + 93 X22 + 64 X23 + 15 X24
  + 8 X25 + 97 X26 + 48 X27 + 21 X28 + 74 X29 + 55 X30 + 13 X31 + 33 X32
  + 39 X33 + 79 X34 + 4 X35 + 96 X36 + 76 X37 + 95 X38 + 34 X39 + 87 X40
  + 83 X41 + 29 X42 + 18 X43 + 67 X44 + 23 X45 + 8 X46 + 15 X47 + 92 X48
  + 9 X49 + 78 X50 + 60 X51 + 98 X52 + 52 X53 + 60 X54 + 51 X55 + 33 X56
  + 95 X57 + 7 X58 + 93 X59 + 34 X60 + 36 X61 + 21 X62 + 66 X63 + 68 X64
  + 59 X65 + 66 X66 + 20 X67 + 85 X68 + 72 X69 + 25 X70 + 25 X71 + 94 X72
  + 17 X73 + 32 X74 + 55 X75 + 68 X76 + 58 X77 + 27 X78 + 67 X79 + 80 X80
  + 26 X81 + 92 X82 + 93 X83 + 50 X84 + 59 X85 + 22 X86 + 14 X87 + 51 X88
  + 93 X89 + 48 X90 + 57 X91 + 91 X92 + 22 X93 + 40 X94 + 22 X95 + 59 X96
  + 29 X97 + 52 X98 + 61 X99 + 64 X100 + 58 X101 + 22 X102 + 91 X103 + 80 X104
  + 65 X105 + 79 X106 + 83 X107 + 67 X108 + 27 X109 + 41 X110 + 84 X111 + 57 X112
  + 12 X113 + 50 X114 + 67 X115 + 62 X116 + 95 X117 + 45 X118 + 80 X119 + 70 X120
  + 28 X121 + 47 X122 + 96 X123 + 32 X124 + 79 X125 + 38 X126 + 78 X127 + 87 X128
  + 2 X129 + 47 X130 + 73 X131 + 82 X132 + 65 X133 + 87 X134 + 100 X135 + 8 X136
  + 89 X137 + 26 X138 + 40 X139 + 10 X140 + 25 X141 + 71 X142 + 54 X143 + 10 X144
  + 62 X145 + 5 X146 + 39 X147 + 65 X148 + 39 X149 + 2 X150 + 69 X151 + 15 X152
  + 13 X153 + 56 X154 + 69 X155 + 81 X156 + 73 X157 + 29 X158 + 89 X159 + 76 X160
  + 88 X161 + 74 X162 + 71 X163 + 71 X164 + 35 X165 + 39 X166 + 30 X167 + 93 X168
  + 15 X169 + 39 X170 + 52 X171 + 6 X172 + 32 X173 + 58 X174 + 34 X175 + 93 X176
  + 62 X177 + 85 X178 + 96 X179 + 80 X180 + 69 X181 + 70 X182 + 25 X183 + 7 X184
  + 83 X185 + 75 X186 + 15 X187 + 50 X188 + 58 X189 + 97 X190 + 38 X191 + 25 X192
  + 37 X193 + 73 X194 + 83 X195 + 34 X196 + 26 X197 + 27 X198 + 33 X199 + 99 X200
  >= 3
Binary
 X1
 X2
 X3
 X4
 X5
 X6
 X7
 X8
 X9
 X10
 X11
 X12
 X13
 X14
 X15
 X16
 X17
 X18
 X19
 X20
 X21
 X22
 X23
 X24
 X25
 X26
 X27
 X28
 X29
 X30
 X31
 X32
 X33
 X34
 X35
 X36
 X37
 X38
 X39
 X40
 X41
 X42
 X43
 X44
 X45
 X46
 X47
 X48
 X49
 X50
 X51
 X52
 X53
 X54
 X55
 X56
 X57
 X58
 X59
 X60
 X61
 X62
 X63
 X64
 X65
 X66
 X67
 X68
 X69
 X70
 X71
 X72
 X73
 X74
 X75
 X76
 X77
 X78
 X79
 X80
 X81
 X82
 X83
 X84
 X85
 X86
 X87
 X88
 X89
 X90
 X91
 X92
 X93
 X94
 X95
 X96
 X97
 X98
 X99
 X100
 X101
 X102
 X103
 X104
 X105
 X106
 X107
 X108
 X109
 X110
 X111
 X112
 X113
 X114
 X115
 X116
 X117
 X118
 X119
 X120
 X121
 X122
 X123
 X124
 X125
 X126
 X127
 X128
 X129
 X130
 X131
 X132
 X133
 X134
 X135
 X136
 X137
 X138
 X139
 X140
 X141
 X142
 X143
 X144
 X145
 X146
 X147
 X148
 X149
 X150
 X151
 X152
 X153
 X154
 X155
 X156
 X157
 X158
 X159
 X160
 X161
 X162
 X163
 X164
 X165
 X166
 X167
 X168
 X169
 X170
 X171
 X172
 X173
 X174
 X175
 X176
 X177
 X178
 X179
 X180
 X181
 X182
 X183
 X184
 X185
 X186
 X187
 X188
 X189
 X190
 X191
 X192
 X193
 X194
 X195
 X196
 X197
 X198
 X199
 X200
End
